benchmarks_vrp/CMT3/no_cluster/CMT3_5.vrp
NAME: CMT3_5
TYPE: CVRP
COMMENT: 826.14 - Cluster Nr.5
DIMENSION: 12
CAPACITY: 200
EDGE_WEIGHT_TYPE: EUC_2D
NODE_COORD_TYPE: TWOD_COORDS
NODE_COORD_SECTION: 
9 50 35
3 56 37
8 47 47
6 56 39
7 53 43
4 57 48
10 45 30
12 37 31
11 49 42
1 35 35
2 55 45
5 41 37
DEPOT_SECTION: 
1
-1
DEMAND_SECTION: 
2 13
12 14
8 13
6 36
1 0
3 6
4 23
7 14
9 19
11 13
10 17
5 16
EOF
