benchmarks_vrp/CMT3/no_cluster/CMT3_5.tour
NAME: CMT3_5 solution
TYPE: TOUR
TOUR_SECTION:
1 5 11 8 4 2 7 6 3 9 10 12 -1
-1
EOF